benchmarks_CP/INST_36x36/55/inst36x36_55_28.dzn
S=6;
start=[|
36,	-1,	23,	31,	21,	-1,	33,	-1,	29,	26,	18,	15,	28,	-1,	-1,	35,	12,	30,	1,	-1,	8,	-1,	5,	-1,	27,	-1,	-1,	-1,	6,	-1,	-1,	17,	-1,	-1,	-1,	16|
-1,	-1,	15,	-1,	18,	-1,	23,	-1,	19,	10,	9,	-1,	20,	-1,	-1,	-1,	1,	-1,	31,	-1,	-1,	-1,	-1,	16,	-1,	-1,	29,	-1,	-1,	-1,	5,	35,	28,	-1,	-1,	7|
17,	-1,	9,	5,	-1,	27,	22,	12,	-1,	4,	8,	16,	-1,	-1,	25,	15,	33,	-1,	24,	13,	29,	28,	11,	35,	1,	32,	23,	10,	20,	-1,	-1,	-1,	-1,	26,	-1,	-1|
-1,	2,	-1,	-1,	32,	-1,	-1,	27,	-1,	-1,	-1,	-1,	-1,	22,	17,	-1,	-1,	-1,	34,	-1,	4,	-1,	26,	-1,	-1,	19,	-1,	-1,	-1,	5,	15,	23,	29,	31,	-1,	20|
1,	20,	33,	-1,	10,	14,	24,	6,	-1,	-1,	28,	-1,	-1,	27,	-1,	18,	29,	-1,	-1,	-1,	15,	23,	3,	22,	30,	-1,	-1,	-1,	8,	-1,	-1,	-1,	25,	-1,	11,	32|
35,	16,	-1,	-1,	25,	29,	13,	14,	-1,	32,	17,	7,	-1,	31,	23,	-1,	34,	-1,	-1,	10,	19,	2,	21,	18,	-1,	11,	-1,	36,	15,	4,	22,	27,	-1,	9,	1,	3|
-1,	-1,	11,	-1,	3,	9,	26,	-1,	24,	-1,	-1,	31,	34,	29,	-1,	30,	-1,	-1,	18,	-1,	5,	8,	-1,	-1,	2,	-1,	-1,	20,	-1,	22,	-1,	-1,	-1,	17,	-1,	-1|
-1,	-1,	1,	30,	-1,	2,	21,	-1,	28,	27,	-1,	-1,	-1,	4,	35,	-1,	22,	24,	23,	14,	16,	-1,	20,	15,	-1,	-1,	-1,	17,	3,	-1,	26,	10,	8,	-1,	-1,	-1|
10,	24,	-1,	36,	6,	35,	-1,	22,	-1,	-1,	12,	9,	-1,	19,	15,	25,	-1,	33,	-1,	11,	26,	30,	17,	2,	-1,	23,	1,	8,	-1,	28,	27,	7,	31,	-1,	-1,	-1|
-1,	17,	19,	-1,	-1,	18,	32,	-1,	-1,	-1,	10,	-1,	1,	2,	31,	-1,	26,	23,	29,	-1,	36,	-1,	-1,	24,	-1,	-1,	-1,	9,	5,	-1,	-1,	14,	-1,	15,	33,	12|
8,	7,	14,	21,	22,	-1,	1,	30,	-1,	-1,	13,	29,	16,	-1,	-1,	-1,	32,	9,	33,	3,	10,	-1,	-1,	27,	-1,	4,	35,	15,	-1,	31,	-1,	-1,	-1,	36,	18,	-1|
-1,	-1,	20,	-1,	-1,	-1,	5,	36,	16,	2,	-1,	-1,	-1,	13,	8,	10,	-1,	-1,	35,	-1,	32,	31,	28,	7,	26,	14,	27,	-1,	21,	29,	24,	-1,	6,	-1,	3,	-1|
24,	-1,	10,	-1,	-1,	17,	-1,	28,	-1,	-1,	-1,	-1,	8,	16,	-1,	11,	30,	-1,	25,	19,	7,	20,	6,	-1,	35,	5,	-1,	2,	-1,	21,	13,	12,	-1,	-1,	-1,	36|
19,	36,	-1,	20,	33,	-1,	-1,	-1,	-1,	29,	16,	21,	10,	-1,	3,	-1,	-1,	31,	30,	18,	22,	11,	23,	-1,	-1,	24,	-1,	14,	-1,	32,	34,	8,	9,	5,	7,	-1|
-1,	14,	18,	-1,	1,	-1,	36,	17,	-1,	-1,	31,	6,	29,	-1,	21,	-1,	-1,	35,	5,	-1,	28,	10,	2,	-1,	20,	16,	13,	7,	33,	8,	25,	-1,	-1,	-1,	-1,	26|
-1,	-1,	2,	4,	30,	-1,	12,	26,	8,	24,	-1,	20,	-1,	6,	34,	19,	18,	-1,	-1,	33,	13,	36,	27,	-1,	10,	-1,	-1,	-1,	-1,	-1,	-1,	15,	-1,	32,	21,	1|
34,	27,	-1,	-1,	-1,	-1,	-1,	32,	10,	11,	-1,	-1,	25,	-1,	13,	5,	-1,	20,	-1,	-1,	21,	-1,	-1,	31,	29,	-1,	-1,	-1,	36,	19,	28,	6,	2,	23,	30,	-1|
-1,	-1,	-1,	-1,	7,	25,	-1,	5,	23,	-1,	-1,	-1,	-1,	-1,	-1,	28,	-1,	-1,	15,	29,	-1,	3,	-1,	-1,	34,	-1,	22,	6,	30,	-1,	16,	18,	-1,	11,	20,	10|
27,	1,	32,	17,	-1,	21,	-1,	8,	26,	28,	22,	-1,	-1,	18,	29,	33,	-1,	7,	11,	-1,	-1,	-1,	4,	23,	25,	35,	20,	24,	-1,	12,	19,	-1,	-1,	3,	-1,	-1|
5,	-1,	-1,	22,	-1,	4,	-1,	23,	27,	1,	-1,	25,	-1,	-1,	10,	21,	31,	19,	32,	-1,	12,	15,	-1,	34,	28,	8,	36,	-1,	-1,	-1,	-1,	29,	14,	-1,	13,	2|
-1,	28,	35,	25,	36,	7,	6,	20,	-1,	-1,	-1,	-1,	-1,	30,	-1,	16,	5,	34,	-1,	-1,	1,	18,	31,	9,	-1,	-1,	2,	3,	19,	13,	-1,	11,	26,	-1,	15,	-1|
-1,	19,	24,	-1,	11,	13,	30,	18,	14,	-1,	29,	35,	-1,	-1,	2,	8,	23,	27,	-1,	-1,	-1,	7,	-1,	-1,	33,	-1,	-1,	-1,	-1,	-1,	-1,	-1,	5,	-1,	-1,	-1|
9,	-1,	-1,	-1,	14,	16,	31,	19,	-1,	-1,	11,	-1,	-1,	28,	24,	-1,	36,	25,	21,	-1,	-1,	-1,	-1,	-1,	-1,	-1,	32,	5,	4,	-1,	18,	33,	-1,	1,	12,	-1|
-1,	-1,	12,	10,	31,	-1,	-1,	2,	-1,	5,	3,	-1,	-1,	-1,	6,	4,	20,	-1,	19,	-1,	-1,	22,	16,	25,	15,	29,	26,	27,	11,	14,	32,	-1,	21,	28,	-1,	30|
-1,	11,	-1,	3,	-1,	23,	19,	-1,	-1,	-1,	14,	-1,	15,	-1,	9,	-1,	13,	22,	20,	-1,	17,	4,	32,	-1,	-1,	12,	5,	30,	-1,	-1,	6,	-1,	-1,	25,	24,	33|
-1,	9,	-1,	-1,	-1,	20,	-1,	25,	13,	22,	36,	8,	24,	-1,	18,	-1,	3,	-1,	26,	31,	23,	6,	1,	-1,	32,	34,	-1,	-1,	-1,	27,	12,	28,	16,	-1,	-1,	15|
-1,	-1,	-1,	-1,	34,	31,	10,	-1,	-1,	-1,	20,	-1,	-1,	26,	-1,	17,	8,	29,	-1,	15,	-1,	-1,	-1,	36,	-1,	7,	21,	-1,	1,	-1,	11,	22,	-1,	4,	35,	5|
30,	8,	-1,	-1,	35,	10,	17,	34,	4,	-1,	-1,	-1,	-1,	-1,	-1,	32,	7,	-1,	-1,	-1,	25,	-1,	18,	13,	31,	9,	19,	22,	-1,	-1,	3,	21,	-1,	29,	-1,	-1|
-1,	12,	-1,	-1,	26,	-1,	-1,	9,	7,	-1,	30,	24,	-1,	-1,	33,	-1,	-1,	-1,	-1,	28,	34,	-1,	-1,	10,	14,	-1,	6,	-1,	-1,	-1,	-1,	19,	27,	-1,	-1,	-1|
33,	-1,	6,	-1,	-1,	-1,	-1,	1,	-1,	-1,	5,	28,	27,	-1,	19,	-1,	-1,	10,	22,	21,	-1,	16,	7,	-1,	24,	-1,	-1,	-1,	26,	-1,	-1,	9,	36,	18,	14,	-1|
22,	3,	-1,	2,	23,	30,	28,	-1,	1,	-1,	-1,	17,	33,	-1,	-1,	-1,	19,	18,	-1,	32,	31,	-1,	-1,	5,	-1,	6,	-1,	-1,	10,	-1,	14,	16,	12,	-1,	29,	-1|
-1,	10,	-1,	9,	-1,	36,	20,	4,	12,	30,	-1,	22,	32,	34,	-1,	-1,	11,	15,	8,	23,	3,	-1,	14,	-1,	-1,	18,	24,	-1,	-1,	16,	33,	26,	35,	13,	28,	-1|
-1,	-1,	-1,	-1,	8,	1,	18,	-1,	-1,	16,	-1,	-1,	22,	-1,	-1,	12,	28,	-1,	36,	6,	-1,	35,	-1,	-1,	3,	27,	-1,	-1,	13,	-1,	-1,	-1,	-1,	-1,	23,	-1|
-1,	-1,	29,	6,	12,	28,	-1,	-1,	11,	35,	-1,	5,	31,	8,	16,	9,	4,	-1,	-1,	-1,	18,	1,	-1,	-1,	-1,	-1,	30,	23,	34,	-1,	-1,	-1,	-1,	7,	25,	24|
-1,	33,	-1,	-1,	-1,	19,	14,	31,	-1,	-1,	23,	13,	-1,	-1,	27,	29,	35,	-1,	12,	-1,	-1,	-1,	-1,	-1,	-1,	36,	-1,	32,	2,	20,	8,	-1,	3,	-1,	-1,	-1|
14,	-1,	16,	-1,	-1,	-1,	-1,	-1,	-1,	-1,	2,	-1,	23,	24,	7,	36,	6,	3,	-1,	-1,	20,	29,	30,	11,	21,	22,	28,	12,	31,	-1,	-1,	-1,	17,	-1,	-1,	-1|];
